
Gurobi 9.5.2 (win64) logging started Fri Nov 10 12:36:26 2023

Set parameter LogFile to value "./ccga_results/2023-11-10 12-36-25-173/MSP_TimeStampConvert_gurobi_log.txt"
Set parameter TimeLimit to value 7200
